networks/zoo_37_69/zoo_37_69-lower.sol
<?xml version = "1.0" encoding="UTF-8" standalone="yes"?>
<CPLEXSolution version="1.2">
 <header
   problemName="networks/zoo_37_69/zoo_37_69-lower.lp"
   solutionName="incumbent"
   solutionIndex="-1"
   objectiveValue="16"
   solutionTypeValue="3"
   solutionTypeString="primal"
   solutionStatusValue="101"
   solutionStatusString="integer optimal solution"
   solutionMethodString="mip"
   primalFeasible="1"
   dualFeasible="1"
   MIPNodes="0"
   MIPIterations="141"
   writeLevel="3"/>
 <quality
   epInt="1.0000000000000001e-05"
   epRHS="9.9999999999999995e-07"
   maxIntInfeas="0"
   maxPrimalInfeas="0"
   maxX="1"
   maxSlack="1"/>
 <variables>
  <variable name="Y(1,4)" index="3" value="1"/>
  <variable name="Y(3,8)" index="57" value="1"/>
  <variable name="Y(10,4)" index="228" value="1"/>
  <variable name="Y(23,8)" index="557" value="1"/>
  <variable name="Y(24,5)" index="579" value="1"/>
  <variable name="Y(29,2)" index="701" value="1"/>
  <variable name="Y(30,6)" index="730" value="1"/>
  <variable name="Y(39,11)" index="960" value="1"/>
  <variable name="Y(45,15)" index="1113" value="1"/>
  <variable name="Y(48,8)" index="1182" value="1"/>
  <variable name="Y(49,14)" index="1212" value="1"/>
  <variable name="Y(53,12)" index="1311" value="1"/>
  <variable name="Y(54,14)" index="1337" value="1"/>
  <variable name="Y(61,18)" index="1515" value="1"/>
  <variable name="Y(62,1)" index="1525" value="1"/>
  <variable name="Y(67,10)" index="1659" value="1"/>
  <variable name="X(1,4,1)" index="1725" value="1"/>
  <variable name="X(1,8,3)" index="1796" value="1"/>
  <variable name="X(1,20,62)" index="1924" value="1"/>
  <variable name="X(2,1,29)" index="1960" value="1"/>
  <variable name="X(2,8,30)" index="2030" value="1"/>
  <variable name="X(3,4,10)" index="2079" value="1"/>
  <variable name="X(4,1,10)" index="2148" value="1"/>
  <variable name="X(4,8,23)" index="2230" value="1"/>
  <variable name="X(4,23,1)" index="2277" value="1"/>
  <variable name="X(5,6,24)" index="2369" value="1"/>
  <variable name="X(6,11,39)" index="2453" value="1"/>
  <variable name="X(6,25,30)" index="2513" value="1"/>
  <variable name="X(7,2,29)" index="2581" value="1"/>
  <variable name="X(8,1,62)" index="2683" value="1"/>
  <variable name="X(8,4,48)" index="2738" value="1"/>
  <variable name="X(8,10,30)" index="2789" value="1"/>
  <variable name="X(8,18,23)" index="2851" value="1"/>
  <variable name="X(8,27,3)" index="2900" value="1"/>
  <variable name="X(9,6,39)" index="3005" value="1"/>
  <variable name="X(10,8,48)" index="3083" value="1"/>
  <variable name="X(10,11,30)" index="3134" value="1"/>
  <variable name="X(10,18,61)" index="3234" value="1"/>
  <variable name="X(10,29,67)" index="3309" value="1"/>
  <variable name="X(11,6,30)" index="3341" value="1"/>
  <variable name="X(11,10,61)" index="3441" value="1"/>
  <variable name="X(11,12,53)" index="3502" value="1"/>
  <variable name="X(11,15,45)" index="3563" value="1"/>
  <variable name="X(11,30,39)" index="3626" value="1"/>
  <variable name="X(12,11,45)" index="3701" value="1"/>
  <variable name="X(12,31,53)" index="3778" value="1"/>
  <variable name="X(14,6,49)" index="3843" value="1"/>
  <variable name="X(14,11,53)" index="3916" value="1"/>
  <variable name="X(14,15,54)" index="3986" value="1"/>
  <variable name="X(15,11,61)" index="4062" value="1"/>
  <variable name="X(15,34,45)" index="4115" value="1"/>
  <variable name="X(17,18,62)" index="4201" value="1"/>
  <variable name="X(18,8,62)" index="4270" value="1"/>
  <variable name="X(18,10,67)" index="4344" value="1"/>
  <variable name="X(18,37,61)" index="4407" value="1"/>
 </variables>
</CPLEXSolution>
